# Solution for model F-JSSP-SDST
# Objective value = 0
B0(11) 1
B1(11) 1
B2(11) 1
B3(13) 1
B4(7) 1
B5(11) 1
B6(13) 1
B7(11) 1
B8(7) 1
B9(11) 1
B10(12) 1
B11(8) 1
B12(12) 1
B13(12) 1
B14(14) 1
B15(12) 1
B16(12) 1
B17(12) 1
B18(14) 1
B19(11) 1
B20(11) 1
B21(11) 1
B22(11) 1
B23(11) 1
B24(2) 0
B25(2) 0
B26(2) 0
B27(2) 0
B28(2) 0
B29(2) 0
B30(2) 0
B31(2) 0
B32(2) 0
B33(2) 0
B34(2) 1
B35(2) 1
B36(2) 1
B37(2) 0
B38(2) 1
B39(2) 1
B40(2) 1
B41(2) 1
B42(2) 1
B43(2) 0
B44(2) 0
B45(2) 0
B46(2) 0
B47(2) 0
B48(2) 0
B49(2) 0
B50(2) 0
B51(2) 1
B52(2) 1
B53(2) 1
B54(2) 1
B55(2) 1
B56(2) 1
B57(2) 1
B58(2) 1
B59(2) 1
B60(2) 1
B61(2) 1
B62(2) 1
B63(2) 1
B64(2) 1
B65(2) 1
B66(2) 0
B67(2) 0
B68(2) 0
B69(2) 1
B70(2) 0
I71(11) 0
I72(12) 1440
I73(12) 11343
I74(14) 17060
I75(8) 27560
I76(11) 1588
I77(14) 3028
I78(12) 14487
I79(8) 15927
I80(12) 19168
I81(11) 10185
I82(8) 11625
I83(12) 14505
I84(12) 18825
I85(14) 20265
I86(11) 3280
I87(12) 4720
I88(12) 7600
I89(14) 12503
I90(11) 6514
I91(12) 9561
I92(12) 11001
I93(12) 12441
I94(12) 15544
I95(1) 0
